min:  x12 +  x13 +x21 + x25 + x31 + x34+x42+x53;
x12 + x13 + x14+ x15 =1;
x23 + x24 + x25 + x21 = 1;
x31 + x32 + x34 + x35 = 1;
x41 + x42 + x43 + x45 = 1;
x51 + x52 + x53 + x54 =1;
x21 + x31 + x41+ x51 =1;
x32 + x42 + x52 + x12 = 1;
x13 + x23 + x43 + x53 = 1;
x14 + x24 + x34 + x54 = 1;
x15 + x25 + x35 + x45 =1;

x15+x51 <= 1;

